15 4 
5917	5917	5917	5917	
558	489	913	
458	918	1092	
253	701	1204	
445	370	536	
194	366	696	
881	341	372	
282	991	1260	
5	650	771	
204	619	645	
225	24	26	
115	485	590	
374	769	776	
293	23	23	
393	426	824	
910	718	765	
